100
128
39
10
38
48
51
3
52
49
9
20
53
33
13
23
25
43
19
39
9
16
27
28
15
22
12
43
54
54
52
30
14
2
9
52
16
9
22
45
31
60
50
11
41
18
38
32
31
42
64
37
11
43
18
16
12
26
37
13
13
47
51
3
25
30
15
32
33
16
49
14
18
23
62
4
27
22
49
41
38
24
4
51
25
57
27
30
42
37
20
1
34
28
61
52
22
45
40
39
38
10